\* MaximiserProfit *\
Maximize
MaximiserBenefice: 7 produits__produit_1 + 9 produits__produit_2
 + 18 produits__produit_3 + 17 produits__produit_4
Subject To
ct1: 2 produits__produit_1 + 4 produits__produit_2 + 5 produits__produit_3
 + 7 produits__produit_4 <= 42
ct2: produits__produit_1 + produits__produit_2 + 2 produits__produit_3
 + 2 produits__produit_4 <= 17
ct3: produits__produit_1 + 2 produits__produit_2 + 3 produits__produit_3
 + 3 produits__produit_4 <= 24
End
